proyfinal/src/viki/013/andrea/andrea-localstore/experimentInOfficeAgust.take6/worker_5/8243d73c-1b5b-4e7d-bd74-8fefa2e12d71.als.cnf.out
Reading from standard input... Use '--help' for help.
============================[ Problem Statistics ]=============================
|                                                                             |
|  Number of variables:         87638                                         |
|  Number of clauses:          161767                                         |
|  Parse time:                   0.04 s                                       |
|                                                                             |
============================[ Search Statistics ]==============================
| Conflicts |          ORIGINAL         |          LEARNT          | Progress |
|           |    Vars  Clauses Literals |    Limit  Clauses Lit/Cl |          |
===============================================================================
|       100 |   63841   110383   275935 |    40473      100     40 | 27.154 % |
|       250 |   63824   110383   275935 |    44521      248     64 | 27.173 % |
|       475 |   63824   110273   275692 |    48973      473     47 | 27.173 % |
|       812 |   63798   110165   275445 |    53870      809     36 | 27.203 % |
|      1318 |   63798   110165   275445 |    59257     1315     58 | 27.203 % |
|      2077 |   63798   110165   275445 |    65183     2074     76 | 27.203 % |
|      3216 |   63739   109927   274887 |    71701     3211     73 | 27.270 % |
|      4924 |   63739   109927   274887 |    78871     4919     80 | 27.270 % |
|      7486 |   63701   109775   274530 |    86759     7479     78 | 27.313 % |
|     11330 |   63674   109629   274212 |    95435    10905     90 | 27.344 % |
|     17096 |   47983    61322   155138 |   104978    10065     66 | 45.249 % |
===============================================================================
restarts              : 63
conflicts             : 17142          (5711 /sec)
decisions             : 59891          (0.00 % random) (19952 /sec)
propagations          : 27171711       (9052165 /sec)
conflict literals     : 1478149        (53.60 % deleted)
Memory used           : 31.76 MB
CPU time              : 3.00168 s

UNSATISFIABLE
